(set-logic QF_S)
(declare-fun V49 () String )
(declare-fun V7 () String )
(declare-fun V46 () String )
(declare-fun V26 () String )
(declare-fun V44 () String )
(declare-fun V27 () String )
(declare-fun V23 () String )
(declare-fun V35 () String )
(declare-fun V37 () String )
(declare-fun V39 () String )
(declare-fun V47 () String )
(declare-fun V66 () String )
(declare-fun V54 () String )
(declare-fun V28 () String )
(declare-fun V3 () String )
(declare-fun V32 () String )
(declare-fun V63 () String )
(declare-fun V70 () String )
(declare-fun V1 () String )
(declare-fun V61 () String )
(declare-fun V11 () String )
(declare-fun V19 () String )
(declare-fun V56 () String )
(declare-fun V25 () String )
(declare-fun V73 () String )
(declare-fun V52 () String )
(declare-fun V22 () String )
(declare-fun V8 () String )
(declare-fun V50 () String )
(declare-fun V0 () String )
(declare-fun V43 () String )
(declare-fun V58 () String )
(declare-fun V41 () String )
(declare-fun V24 () String )
(declare-fun V21 () String )
(declare-fun V34 () String )
(declare-fun V9 () String )
(declare-fun V53 () String )
(declare-fun V60 () String )
(declare-fun V2 () String )
(declare-fun V75 () String )
(declare-fun V36 () String )
(declare-fun V57 () String )
(declare-fun V55 () String )
(declare-fun V5 () String )
(declare-fun V64 () String )
(declare-fun V13 () String )
(declare-fun V71 () String )
(declare-fun V31 () String )
(declare-fun V20 () String )
(declare-fun V30 () String )
(declare-fun V33 () String )
(declare-fun V74 () String )
(declare-fun V18 () String )
(declare-fun V38 () String )
(declare-fun V6 () String )
(declare-fun V59 () String )
(declare-fun V14 () String )
(declare-fun V67 () String )
(declare-fun V76 () String )
(declare-fun V45 () String )
(declare-fun V40 () String )
(declare-fun V12 () String )
(declare-fun V42 () String )
(declare-fun V69 () String )
(declare-fun V4 () String )
(declare-fun V48 () String )
(declare-fun V62 () String )
(declare-fun V29 () String )
(declare-fun V15 () String )
(declare-fun V51 () String )
(declare-fun V65 () String )
(declare-fun V72 () String )
(declare-fun V17 () String )
(declare-fun V16 () String )
(declare-fun V10 () String )
(declare-fun V68 () String )
(assert (= "" "J" ) )
(assert (= "" "X" ) )
(assert (= "" V12 ) )
(assert (= "" V52 ) )
(assert (= "" V29 ) )
(assert (= "" V32 ) )
(assert (= "" V35 ) )
(assert (= "" (str.++ (str.++ V31 V32 ) V33 ) ) )
(assert (= "=" V0 ) )
(assert (= "E" V1 ) )
(assert (= "J" V10 ) )
(assert (= "M" V15 ) )
(assert (= "X" V14 ) )
(assert (= V13 V24 ) )
(assert (= V48 V31 ) )
(assert (= V50 V33 ) )
(assert (= V49 V32 ) )
(assert (= V69 V64 ) )
(assert (= V70 V65 ) )
(assert (= V70 V40 ) )
(assert (= V57 V12 ) )
(assert (= V64 V39 ) )
(assert (= V65 V40 ) )
(assert (= V60 V56 ) )
(assert (= V68 (str.++ (str.++ V66 "x" ) V67 ) ) )
(assert (= V55 (str.++ (str.++ V66 "X" ) V67 ) ) )
(assert (= V4 V73 ) )
(assert (= V76 (str.++ "e" V3 ) ) )
(assert (= V76 (str.++ (str.++ V74 "e" ) V75 ) ) )
(assert (= V3 (str.++ (str.++ V74 "E" ) V75 ) ) )
(assert (= V45 V34 ) )
(assert (= V47 V36 ) )
(assert (= V18 V27 ) )
(assert (= V46 V35 ) )
(assert (= V63 (str.++ (str.++ V61 "m" ) V62 ) ) )
(assert (= V5 (str.++ (str.++ V51 V52 ) V53 ) ) )
(assert (= V5 (str.++ (str.++ V28 V29 ) V30 ) ) )
(assert (= V5 (str.++ (str.++ V37 "E" ) V38 ) ) )
(assert (= V5 (str.++ (str.++ V71 V72 ) V73 ) ) )
(assert (= V5 (str.++ (str.++ V2 V3 ) V4 ) ) )
(assert (= V7 (str.++ (str.++ V48 V49 ) V50 ) ) )
(assert (= V7 (str.++ (str.++ V22 V23 ) V24 ) ) )
(assert (= V7 (str.++ (str.++ V31 V32 ) V33 ) ) )
(assert (= V7 (str.++ (str.++ V39 "J" ) V40 ) ) )
(assert (= V7 (str.++ (str.++ V11 V12 ) V13 ) ) )
(assert (= V17 (str.++ (str.++ V61 "M" ) V62 ) ) )
(assert (= V9 (str.++ (str.++ V41 "=" ) V42 ) ) )
(assert (= V9 (str.++ (str.++ V20 V5 ) V21 ) ) )
(assert (= V9 (str.++ (str.++ V6 V7 ) V8 ) ) )
(assert (= V19 (str.++ (str.++ V45 V46 ) V47 ) ) )
(assert (= V19 (str.++ (str.++ V34 V35 ) V36 ) ) )
(assert (= V19 (str.++ (str.++ V43 "M" ) V44 ) ) )
(assert (= V19 (str.++ (str.++ V25 V26 ) V27 ) ) )
(assert (= V19 (str.++ (str.++ V16 V17 ) V18 ) ) )
(assert (= (str.++ V49 V50 ) (str.++ V32 V33 ) ) )
(assert (= (str.++ V57 V23 ) (str.++ (str.++ V58 V59 ) V60 ) ) )
(assert (= (str.++ V57 V23 ) (str.++ (str.++ V54 V55 ) V56 ) ) )
(assert (= (str.++ V64 "X" ) (str.++ V39 "J" ) ) )
(assert (= (str.++ V46 V47 ) (str.++ V35 V36 ) ) )
(assert (= (str.++ (str.++ V69 "J" ) V70 ) (str.++ (str.++ V39 "J" ) V40 ) ) )
(assert (= (str.++ (str.++ V64 "X" ) V65 ) (str.++ (str.++ V39 "J" ) V40 ) ) )
( check-sat )
